# Solution for model Model5
# Objective value = 52
y[0,0,3] 1
y[0,0,5] 0
y[0,0,6] 0
y[0,1,0] 0
y[0,1,2] 0
y[0,1,4] 1
y[0,2,2] 1
y[0,2,3] 0
y[0,2,6] 0
y[1,0,2] 1
y[1,0,3] 0
y[1,0,4] 0
y[1,1,1] 0
y[1,1,4] 1
y[1,1,6] 0
y[1,2,0] 0
y[1,2,1] 1
y[1,2,2] 0
y[2,0,2] 0
y[2,0,4] 1
y[2,0,6] 0
y[2,1,1] 1
y[2,1,4] 0
y[2,1,5] 0
y[2,2,0] 0
y[2,2,2] 1
y[2,2,5] 0
y[3,0,2] 0
y[3,0,5] 0
y[3,0,6] 1
y[3,1,0] 1
y[3,1,3] 0
y[3,1,4] 0
y[3,2,2] 0
y[3,2,3] 1
y[3,2,6] 0
y[4,0,1] 0
y[4,0,4] 1
y[4,0,5] 0
y[4,1,3] 0
y[4,1,4] 0
y[4,1,5] 1
y[4,2,2] 1
y[4,2,4] 0
y[4,2,6] 0
y[5,0,0] 0
y[5,0,4] 0
y[5,0,6] 1
y[5,1,0] 0
y[5,1,3] 0
y[5,1,5] 1
y[5,2,0] 0
y[5,2,5] 0
y[5,2,6] 1
y[6,0,2] 0
y[6,0,3] 1
y[6,0,4] 0
y[6,1,1] 0
y[6,1,2] 0
y[6,1,5] 1
y[6,2,0] 1
y[6,2,1] 0
y[6,2,5] 0
x[0,0,0,0] 0
x[0,0,0,1] 0
x[0,0,0,2] 1
x[0,0,1,0] 0
x[0,0,1,1] 0
x[0,0,1,2] 0
x[0,0,2,0] 0
x[0,0,2,1] 0
x[0,0,2,2] 1
x[0,0,3,0] 0
x[0,0,3,1] 0
x[0,0,3,2] 1
x[0,0,4,0] 0
x[0,0,4,1] 0
x[0,0,4,2] 0
x[0,0,5,0] 0
x[0,0,5,1] 0
x[0,0,5,2] 0
x[0,0,6,0] 1
x[0,0,6,1] 1
x[0,0,6,2] 1
x[0,1,0,0] 0
x[0,1,0,1] 0
x[0,1,0,2] 0
x[0,1,1,0] 0
x[0,1,1,1] 1
x[0,1,1,2] 0
x[0,1,2,0] 1
x[0,1,2,1] 0
x[0,1,2,2] 1
x[0,1,3,0] 1
x[0,1,3,1] 0
x[0,1,3,2] 0
x[0,1,4,0] 0
x[0,1,4,1] 0
x[0,1,4,2] 0
x[0,1,5,0] 0
x[0,1,5,1] 0
x[0,1,5,2] 1
x[0,1,6,0] 0
x[0,1,6,1] 0
x[0,1,6,2] 1
x[0,2,0,0] 0
x[0,2,0,1] 1
x[0,2,0,2] 0
x[0,2,1,0] 0
x[0,2,1,1] 0
x[0,2,1,2] 0
x[0,2,2,0] 1
x[0,2,2,1] 0
x[0,2,2,2] 1
x[0,2,3,0] 0
x[0,2,3,1] 0
x[0,2,3,2] 0
x[0,2,4,0] 0
x[0,2,4,1] 0
x[0,2,4,2] 0
x[0,2,5,0] 1
x[0,2,5,1] 0
x[0,2,5,2] 1
x[0,2,6,0] 0
x[0,2,6,1] 1
x[0,2,6,2] 0
x[1,0,0,0] 0
x[1,0,0,1] 0
x[1,0,0,2] 0
x[1,0,1,0] 0
x[1,0,1,1] 1
x[1,0,1,2] 0
x[1,0,2,0] 1
x[1,0,2,1] 0
x[1,0,2,2] 1
x[1,0,3,0] 0
x[1,0,3,1] 0
x[1,0,3,2] 0
x[1,0,4,0] 1
x[1,0,4,1] 0
x[1,0,4,2] 0
x[1,0,5,0] 0
x[1,0,5,1] 1
x[1,0,5,2] 0
x[1,0,6,0] 0
x[1,0,6,1] 1
x[1,0,6,2] 0
x[1,1,0,0] 0
x[1,1,0,1] 0
x[1,1,0,2] 0
x[1,1,1,0] 0
x[1,1,1,1] 0
x[1,1,1,2] 0
x[1,1,2,0] 0
x[1,1,2,1] 0
x[1,1,2,2] 0
x[1,1,3,0] 0
x[1,1,3,1] 0
x[1,1,3,2] 0
x[1,1,4,0] 0
x[1,1,4,1] 0
x[1,1,4,2] 0
x[1,1,5,0] 0
x[1,1,5,1] 0
x[1,1,5,2] 0
x[1,1,6,0] 0
x[1,1,6,1] 0
x[1,1,6,2] 0
x[1,2,0,0] 0
x[1,2,0,1] 0
x[1,2,0,2] 0
x[1,2,1,0] 1
x[1,2,1,1] 1
x[1,2,1,2] 0
x[1,2,2,0] 1
x[1,2,2,1] 1
x[1,2,2,2] 1
x[1,2,3,0] 1
x[1,2,3,1] 1
x[1,2,3,2] 0
x[1,2,4,0] 0
x[1,2,4,1] 0
x[1,2,4,2] 0
x[1,2,5,0] 0
x[1,2,5,1] 0
x[1,2,5,2] 0
x[1,2,6,0] 1
x[1,2,6,1] 0
x[1,2,6,2] 0
x[2,0,0,0] 0
x[2,0,0,1] 0
x[2,0,0,2] 0
x[2,0,1,0] 0
x[2,0,1,1] 0
x[2,0,1,2] 0
x[2,0,2,0] 0
x[2,0,2,1] 1
x[2,0,2,2] 0
x[2,0,3,0] 0
x[2,0,3,1] 0
x[2,0,3,2] 1
x[2,0,4,0] 0
x[2,0,4,1] 1
x[2,0,4,2] 1
x[2,0,5,0] 1
x[2,0,5,1] 0
x[2,0,5,2] 0
x[2,0,6,0] 1
x[2,0,6,1] 0
x[2,0,6,2] 0
x[2,1,0,0] 0
x[2,1,0,1] 0
x[2,1,0,2] 0
x[2,1,1,0] 0
x[2,1,1,1] 0
x[2,1,1,2] 0
x[2,1,2,0] 0
x[2,1,2,1] 0
x[2,1,2,2] 0
x[2,1,3,0] 1
x[2,1,3,1] 1
x[2,1,3,2] 0
x[2,1,4,0] 0
x[2,1,4,1] 1
x[2,1,4,2] 0
x[2,1,5,0] 1
x[2,1,5,1] 0
x[2,1,5,2] 1
x[2,1,6,0] 1
x[2,1,6,1] 0
x[2,1,6,2] 0
x[2,2,0,0] 0
x[2,2,0,1] 0
x[2,2,0,2] 0
x[2,2,1,0] 0
x[2,2,1,1] 0
x[2,2,1,2] 0
x[2,2,2,0] 1
x[2,2,2,1] 1
x[2,2,2,2] 0
x[2,2,3,0] 0
x[2,2,3,1] 0
x[2,2,3,2] 0
x[2,2,4,0] 1
x[2,2,4,1] 1
x[2,2,4,2] 0
x[2,2,5,0] 0
x[2,2,5,1] 0
x[2,2,5,2] 0
x[2,2,6,0] 1
x[2,2,6,1] 1
x[2,2,6,2] 0
x[3,0,0,0] 0
x[3,0,0,1] 0
x[3,0,0,2] 0
x[3,0,1,0] 0
x[3,0,1,1] 0
x[3,0,1,2] 0
x[3,0,2,0] 0
x[3,0,2,1] 0
x[3,0,2,2] 0
x[3,0,3,0] 0
x[3,0,3,1] 0
x[3,0,3,2] 0
x[3,0,4,0] 0
x[3,0,4,1] 1
x[3,0,4,2] 1
x[3,0,5,0] 1
x[3,0,5,1] 1
x[3,0,5,2] 1
x[3,0,6,0] 1
x[3,0,6,1] 0
x[3,0,6,2] 1
x[3,1,0,0] 0
x[3,1,0,1] 0
x[3,1,0,2] 0
x[3,1,1,0] 0
x[3,1,1,1] 0
x[3,1,1,2] 0
x[3,1,2,0] 0
x[3,1,2,1] 0
x[3,1,2,2] 0
x[3,1,3,0] 0
x[3,1,3,1] 0
x[3,1,3,2] 1
x[3,1,4,0] 1
x[3,1,4,1] 1
x[3,1,4,2] 1
x[3,1,5,0] 1
x[3,1,5,1] 1
x[3,1,5,2] 0
x[3,1,6,0] 1
x[3,1,6,1] 0
x[3,1,6,2] 0
x[3,2,0,0] 0
x[3,2,0,1] 0
x[3,2,0,2] 0
x[3,2,1,0] 0
x[3,2,1,1] 0
x[3,2,1,2] 0
x[3,2,2,0] 0
x[3,2,2,1] 0
x[3,2,2,2] 0
x[3,2,3,0] 1
x[3,2,3,1] 0
x[3,2,3,2] 0
x[3,2,4,0] 0
x[3,2,4,1] 1
x[3,2,4,2] 1
x[3,2,5,0] 1
x[3,2,5,1] 0
x[3,2,5,2] 1
x[3,2,6,0] 0
x[3,2,6,1] 1
x[3,2,6,2] 0
x[4,0,0,0] 0
x[4,0,0,1] 0
x[4,0,0,2] 0
x[4,0,1,0] 0
x[4,0,1,1] 0
x[4,0,1,2] 0
x[4,0,2,0] 0
x[4,0,2,1] 0
x[4,0,2,2] 0
x[4,0,3,0] 0
x[4,0,3,1] 0
x[4,0,3,2] 0
x[4,0,4,0] 0
x[4,0,4,1] 0
x[4,0,4,2] 1
x[4,0,5,0] 0
x[4,0,5,1] 0
x[4,0,5,2] 0
x[4,0,6,0] 0
x[4,0,6,1] 1
x[4,0,6,2] 1
x[4,1,0,0] 0
x[4,1,0,1] 0
x[4,1,0,2] 0
x[4,1,1,0] 0
x[4,1,1,1] 0
x[4,1,1,2] 0
x[4,1,2,0] 0
x[4,1,2,1] 0
x[4,1,2,2] 0
x[4,1,3,0] 0
x[4,1,3,1] 0
x[4,1,3,2] 0
x[4,1,4,0] 1
x[4,1,4,1] 0
x[4,1,4,2] 1
x[4,1,5,0] 1
x[4,1,5,1] 1
x[4,1,5,2] 0
x[4,1,6,0] 1
x[4,1,6,1] 1
x[4,1,6,2] 1
x[4,2,0,0] 0
x[4,2,0,1] 0
x[4,2,0,2] 0
x[4,2,1,0] 0
x[4,2,1,1] 0
x[4,2,1,2] 0
x[4,2,2,0] 0
x[4,2,2,1] 0
x[4,2,2,2] 0
x[4,2,3,0] 0
x[4,2,3,1] 0
x[4,2,3,2] 0
x[4,2,4,0] 0
x[4,2,4,1] 0
x[4,2,4,2] 0
x[4,2,5,0] 0
x[4,2,5,1] 0
x[4,2,5,2] 1
x[4,2,6,0] 0
x[4,2,6,1] 0
x[4,2,6,2] 0
x[5,0,0,0] 0
x[5,0,0,1] 0
x[5,0,0,2] 0
x[5,0,1,0] 0
x[5,0,1,1] 0
x[5,0,1,2] 0
x[5,0,2,0] 0
x[5,0,2,1] 0
x[5,0,2,2] 0
x[5,0,3,0] 0
x[5,0,3,1] 0
x[5,0,3,2] 0
x[5,0,4,0] 0
x[5,0,4,1] 0
x[5,0,4,2] 0
x[5,0,5,0] 0
x[5,0,5,1] 0
x[5,0,5,2] 1
x[5,0,6,0] 1
x[5,0,6,1] 0
x[5,0,6,2] 1
x[5,1,0,0] 0
x[5,1,0,1] 0
x[5,1,0,2] 0
x[5,1,1,0] 0
x[5,1,1,1] 0
x[5,1,1,2] 0
x[5,1,2,0] 0
x[5,1,2,1] 0
x[5,1,2,2] 0
x[5,1,3,0] 0
x[5,1,3,1] 0
x[5,1,3,2] 0
x[5,1,4,0] 0
x[5,1,4,1] 0
x[5,1,4,2] 0
x[5,1,5,0] 1
x[5,1,5,1] 0
x[5,1,5,2] 1
x[5,1,6,0] 1
x[5,1,6,1] 0
x[5,1,6,2] 0
x[5,2,0,0] 0
x[5,2,0,1] 0
x[5,2,0,2] 0
x[5,2,1,0] 0
x[5,2,1,1] 0
x[5,2,1,2] 0
x[5,2,2,0] 0
x[5,2,2,1] 0
x[5,2,2,2] 0
x[5,2,3,0] 0
x[5,2,3,1] 0
x[5,2,3,2] 0
x[5,2,4,0] 0
x[5,2,4,1] 0
x[5,2,4,2] 0
x[5,2,5,0] 0
x[5,2,5,1] 0
x[5,2,5,2] 0
x[5,2,6,0] 0
x[5,2,6,1] 1
x[5,2,6,2] 1
x[6,0,0,0] 0
x[6,0,0,1] 0
x[6,0,0,2] 0
x[6,0,1,0] 0
x[6,0,1,1] 0
x[6,0,1,2] 0
x[6,0,2,0] 0
x[6,0,2,1] 0
x[6,0,2,2] 0
x[6,0,3,0] 0
x[6,0,3,1] 0
x[6,0,3,2] 0
x[6,0,4,0] 0
x[6,0,4,1] 0
x[6,0,4,2] 0
x[6,0,5,0] 0
x[6,0,5,1] 0
x[6,0,5,2] 0
x[6,0,6,0] 0
x[6,0,6,1] 0
x[6,0,6,2] 0
x[6,1,0,0] 0
x[6,1,0,1] 0
x[6,1,0,2] 0
x[6,1,1,0] 0
x[6,1,1,1] 0
x[6,1,1,2] 0
x[6,1,2,0] 0
x[6,1,2,1] 0
x[6,1,2,2] 0
x[6,1,3,0] 0
x[6,1,3,1] 0
x[6,1,3,2] 0
x[6,1,4,0] 0
x[6,1,4,1] 0
x[6,1,4,2] 0
x[6,1,5,0] 0
x[6,1,5,1] 0
x[6,1,5,2] 0
x[6,1,6,0] 1
x[6,1,6,1] 0
x[6,1,6,2] 1
x[6,2,0,0] 0
x[6,2,0,1] 0
x[6,2,0,2] 0
x[6,2,1,0] 0
x[6,2,1,1] 0
x[6,2,1,2] 0
x[6,2,2,0] 0
x[6,2,2,1] 0
x[6,2,2,2] 0
x[6,2,3,0] 0
x[6,2,3,1] 0
x[6,2,3,2] 0
x[6,2,4,0] 0
x[6,2,4,1] 0
x[6,2,4,2] 0
x[6,2,5,0] 0
x[6,2,5,1] 0
x[6,2,5,2] 0
x[6,2,6,0] 0
x[6,2,6,1] 0
x[6,2,6,2] 0
s[0,0,3] 2.2000000000000320e+01
s[0,0,5] 0
s[0,0,6] 0
s[0,1,0] 0
s[0,1,2] 0
s[0,1,4] 2.0000000000000320e+01
s[0,2,2] 6.9999999999999716e+00
s[0,2,3] 0
s[0,2,6] 0
s[1,0,2] 1.2999999999999972e+01
s[1,0,3] 0
s[1,0,4] 0
s[1,1,1] 0
s[1,1,4] 0
s[1,1,6] 0
s[1,2,0] 0
s[1,2,1] 10
s[1,2,2] 0
s[2,0,2] 0
s[2,0,4] 6
s[2,0,6] 0
s[2,1,1] 3
s[2,1,4] 0
s[2,1,5] 0
s[2,2,0] 0
s[2,2,2] 1
s[2,2,5] 0
s[3,0,2] 0
s[3,0,5] 0
s[3,0,6] 1.5000000000000234e+01
s[3,1,0] 6
s[3,1,3] 0
s[3,1,4] 0
s[3,2,2] 0
s[3,2,3] 2
s[3,2,6] 0
s[4,0,1] 0
s[4,0,4] 2.6999999999999972e+01
s[4,0,5] 0
s[4,1,3] 0
s[4,1,4] 0
s[4,1,5] 2.2999999999999972e+01
s[4,2,2] 2.0999999999999972e+01
s[4,2,4] 0
s[4,2,6] 0
s[5,0,0] 0
s[5,0,4] 0
s[5,0,6] 10
s[5,1,0] 0
s[5,1,3] 0
s[5,1,5] 6
s[5,2,0] 0
s[5,2,5] 0
s[5,2,6] 3
s[6,0,2] 0
s[6,0,3] 1.4000000000000028e+01
s[6,0,4] 0
s[6,1,1] 0
s[6,1,2] 0
s[6,1,5] 1.2000000000000007e+01
s[6,2,0] 1.0000000000000028e+01
s[6,2,1] 0
s[6,2,5] 0
Z_FO 52
C568 1
C569 0
C570 0
C571 1
C572 0
C573 0
C574 0
C575 1
C576 0
C577 0
C578 0
C579 1
C580 0
C581 1
C582 0
C583 0
C584 0
C585 1
C586 0
C587 1
C588 0
